Maximize
  0.00124654679285733 Z_2_0_0 + 0.00124486346050282 Z_2_0_1
   + 0.00143898247748811 Z_2_0_2 + 0.7471396240361482 Z_2_0_3
   + 0.1489299832330036 Z_2_0_4 + 4.546897439626193e-04 Z_589_1_0
   + 0.00101999820134357 Z_589_1_1 + 0.8046494172067143 Z_589_1_2
   + 0.00545639384796124 Z_589_1_3 + 0.0884195010000184 Z_589_1_4
   + 0.00539010215068202 Z_310_4_0 + 0.0135113344074684 Z_310_4_1
   + 5.5239357991939254e-04 Z_310_4_2 + 0.0659237969463707 Z_310_4_3
   + 0.8146223729155595 Z_310_4_4 + 0.00339693715493681 Z_310_1_0
   + 7.2695062616437737e-04 Z_310_1_1 + 0.00278114443650135 Z_310_1_2
   + 0.0485081421218942 Z_310_1_3 + 0.8445868256605032 Z_310_1_4
   + 0.00335853560210638 Z_310_5_0 + 0.0595453526966637 Z_310_5_1
   + 0.00993653733870026 Z_310_5_2 + 0.1308723643479413 Z_310_5_3
   + 0.6962872100145883 Z_310_5_4 + 0.0154784966108515 Z_310_2_0
   + 0.0142998179354413 Z_310_2_1 + 0.021029490438601 Z_310_2_2
   + 0.0519738314318365 Z_310_2_3 + 0.7972183635832699 Z_310_2_4
   + 0.0154784966108515 Z_310_6_0 + 0.0142998179354413 Z_310_6_1
   + 0.021029490438601 Z_310_6_2 + 0.0519738314318365 Z_310_6_3
   + 0.7972183635832699 Z_310_6_4 + 0.000113119 Z_310_0_0
   + 2.7120625673078986e-04 Z_310_0_1 + 0.00752086382158933 Z_310_0_2
   + 0.0145946749981511 Z_310_0_3 + 0.8775001359732092 Z_310_0_4
   + 0.00285583955037571 Z_310_3_0 + 0.00601232215273068 Z_310_3_1
   + 0.0058331213837717 Z_310_3_2 + 0.0364783860595608 Z_310_3_3
   + 0.8488203308535611 Z_310_3_4 + 0.00011118 Z_551_1_0
   + 0.00118806437674142 Z_551_1_1 + 0.7808416853935519 Z_551_1_2
   + 0.00440909649520709 Z_551_1_3 + 0.1134499737637274 Z_551_1_4
   + 0.7609159242946784 Z_551_0_0 + 0.0114064760476968 Z_551_0_1
   + 0.0130363081016539 Z_551_0_2 + 0.0349806483268075 Z_551_0_3
   + 0.0796606432291635 Z_551_0_4 + 0.00343623136389444 Z_307_0_0
   + 0.7873991076068823 Z_307_0_1 + 0.00513768971196686 Z_307_0_2
   + 0.0118444474403219 Z_307_0_3 + 0.0921825238769346 Z_307_0_4
   + 0.2093449437378304 Z_409_1_0 + 0.010155366994149 Z_409_1_1
   + 0.0146488708883916 Z_409_1_2 + 0.1208177648415485 Z_409_1_3
   + 0.5450330535380805 Z_409_1_4 + 0.00920768489919055 Z_159_0_0
   + 0.7737284783858801 Z_159_0_1 + 0.00450786036795941 Z_159_0_2
   + 0.0751318884612219 Z_159_0_3 + 0.0374240878857479 Z_159_0_4
   + 0.6022706947112334 Z_102_0_0 + 0.0188376062519309 Z_102_0_1
   + 0.0125364502287016 Z_102_0_2 + 0.0050436004738524 Z_102_0_3
   + 0.2613116483342816 Z_102_0_4 + 2.219103064625411e-04 Z_102_1_0
   + 0.00140432892301438 Z_102_1_1 + 0.5764487122147002 Z_102_1_2
   + 0.00159350477056129 Z_102_1_3 + 0.3203315437852617 Z_102_1_4 + [
   0.1057027196895249 Z_2_0_0 * Z_310_4_0
   + 0.1057027196895249 Z_2_0_0 * Z_310_2_0
   + 0.1057027196895249 Z_2_0_0 * Z_310_6_0
   + 0.00711111111111111 Z_2_0_0 * Z_310_0_0
   + 0.0871111111111111 Z_2_0_0 * Z_551_1_0
   + 0.0126144402670805 Z_2_0_0 * Z_409_1_0
   + 0.00182358287040991 Z_2_0_0 * Z_159_0_0
   + 0.1057027196895249 Z_2_0_1 * Z_310_4_1
   + 0.1057027196895249 Z_2_0_1 * Z_310_2_1
   + 0.1057027196895249 Z_2_0_1 * Z_310_6_1
   + 0.00711111111111111 Z_2_0_1 * Z_310_0_1
   + 0.0871111111111111 Z_2_0_1 * Z_551_1_1
   + 0.0126144402670805 Z_2_0_1 * Z_409_1_1
   + 0.00182358287040991 Z_2_0_1 * Z_159_0_1
   + 0.1057027196895249 Z_2_0_2 * Z_310_4_2
   + 0.1057027196895249 Z_2_0_2 * Z_310_2_2
   + 0.1057027196895249 Z_2_0_2 * Z_310_6_2
   + 0.00711111111111111 Z_2_0_2 * Z_310_0_2
   + 0.0871111111111111 Z_2_0_2 * Z_551_1_2
   + 0.0126144402670805 Z_2_0_2 * Z_409_1_2
   + 0.00182358287040991 Z_2_0_2 * Z_159_0_2
   + 0.1057027196895249 Z_2_0_3 * Z_310_4_3
   + 0.1057027196895249 Z_2_0_3 * Z_310_2_3
   + 0.1057027196895249 Z_2_0_3 * Z_310_6_3
   + 0.00711111111111111 Z_2_0_3 * Z_310_0_3
   + 0.0871111111111111 Z_2_0_3 * Z_551_1_3
   + 0.0126144402670805 Z_2_0_3 * Z_409_1_3
   + 0.00182358287040991 Z_2_0_3 * Z_159_0_3
   + 0.1057027196895249 Z_2_0_4 * Z_310_4_4
   + 0.1057027196895249 Z_2_0_4 * Z_310_2_4
   + 0.1057027196895249 Z_2_0_4 * Z_310_6_4
   + 0.00711111111111111 Z_2_0_4 * Z_310_0_4
   + 0.0871111111111111 Z_2_0_4 * Z_551_1_4
   + 0.0126144402670805 Z_2_0_4 * Z_409_1_4
   + 0.00182358287040991 Z_2_0_4 * Z_159_0_4
   + 0.00108477822235902 Z_589_1_0 * Z_551_1_0
   + 0.000149676 Z_589_1_0 * Z_159_0_0
   + 0.00108477822235902 Z_589_1_1 * Z_551_1_1
   + 0.000149676 Z_589_1_1 * Z_159_0_1
   + 0.00108477822235902 Z_589_1_2 * Z_551_1_2
   + 0.000149676 Z_589_1_2 * Z_159_0_2
   + 0.00108477822235902 Z_589_1_3 * Z_551_1_3
   + 0.000149676 Z_589_1_3 * Z_159_0_3
   + 0.00108477822235902 Z_589_1_4 * Z_551_1_4
   + 0.000149676 Z_589_1_4 * Z_159_0_4
   + 0.0165289256198347 Z_310_4_0 * Z_551_1_0 + 0.4 Z_310_4_0 * Z_551_0_0
   + 0.0568556187589977 Z_310_4_0 * Z_307_0_0
   + 0.00288622 Z_310_4_0 * Z_409_1_0
   + 0.139387911942782 Z_310_4_0 * Z_159_0_0 + 0.4 Z_310_4_0 * Z_102_0_0
   + 0.0165289256198347 Z_310_4_1 * Z_551_1_1 + 0.4 Z_310_4_1 * Z_551_0_1
   + 0.0568556187589977 Z_310_4_1 * Z_307_0_1
   + 0.00288622 Z_310_4_1 * Z_409_1_1
   + 0.139387911942782 Z_310_4_1 * Z_159_0_1 + 0.4 Z_310_4_1 * Z_102_0_1
   + 0.0165289256198347 Z_310_4_2 * Z_551_1_2 + 0.4 Z_310_4_2 * Z_551_0_2
   + 0.0568556187589977 Z_310_4_2 * Z_307_0_2
   + 0.00288622 Z_310_4_2 * Z_409_1_2
   + 0.139387911942782 Z_310_4_2 * Z_159_0_2 + 0.4 Z_310_4_2 * Z_102_0_2
   + 0.0165289256198347 Z_310_4_3 * Z_551_1_3 + 0.4 Z_310_4_3 * Z_551_0_3
   + 0.0568556187589977 Z_310_4_3 * Z_307_0_3
   + 0.00288622 Z_310_4_3 * Z_409_1_3
   + 0.139387911942782 Z_310_4_3 * Z_159_0_3 + 0.4 Z_310_4_3 * Z_102_0_3
   + 0.0165289256198347 Z_310_4_4 * Z_551_1_4 + 0.4 Z_310_4_4 * Z_551_0_4
   + 0.0568556187589977 Z_310_4_4 * Z_307_0_4
   + 0.00288622 Z_310_4_4 * Z_409_1_4
   + 0.139387911942782 Z_310_4_4 * Z_159_0_4 + 0.4 Z_310_4_4 * Z_102_0_4
   + 0.00177777777777778 Z_310_5_0 * Z_551_1_0 + 0.4 Z_310_5_0 * Z_551_0_0
   + 0.0479323474509875 Z_310_5_0 * Z_307_0_0
   + 0.139387911942782 Z_310_5_0 * Z_159_0_0 + 0.4 Z_310_5_0 * Z_102_0_0
   + 0.00177777777777778 Z_310_5_1 * Z_551_1_1 + 0.4 Z_310_5_1 * Z_551_0_1
   + 0.0479323474509875 Z_310_5_1 * Z_307_0_1
   + 0.139387911942782 Z_310_5_1 * Z_159_0_1 + 0.4 Z_310_5_1 * Z_102_0_1
   + 0.00177777777777778 Z_310_5_2 * Z_551_1_2 + 0.4 Z_310_5_2 * Z_551_0_2
   + 0.0479323474509875 Z_310_5_2 * Z_307_0_2
   + 0.139387911942782 Z_310_5_2 * Z_159_0_2 + 0.4 Z_310_5_2 * Z_102_0_2
   + 0.00177777777777778 Z_310_5_3 * Z_551_1_3 + 0.4 Z_310_5_3 * Z_551_0_3
   + 0.0479323474509875 Z_310_5_3 * Z_307_0_3
   + 0.139387911942782 Z_310_5_3 * Z_159_0_3 + 0.4 Z_310_5_3 * Z_102_0_3
   + 0.00177777777777778 Z_310_5_4 * Z_551_1_4 + 0.4 Z_310_5_4 * Z_551_0_4
   + 0.0479323474509875 Z_310_5_4 * Z_307_0_4
   + 0.139387911942782 Z_310_5_4 * Z_159_0_4 + 0.4 Z_310_5_4 * Z_102_0_4
   + 0.0165289256198347 Z_310_2_0 * Z_551_1_0 + 0.4 Z_310_2_0 * Z_551_0_0
   + 0.0568556187589977 Z_310_2_0 * Z_307_0_0
   + 0.0023271038676035 Z_310_2_0 * Z_409_1_0
   + 0.1573684054545327 Z_310_2_0 * Z_159_0_0 + 0.4 Z_310_2_0 * Z_102_0_0
   + 0.0165289256198347 Z_310_2_1 * Z_551_1_1 + 0.4 Z_310_2_1 * Z_551_0_1
   + 0.0568556187589977 Z_310_2_1 * Z_307_0_1
   + 0.0023271038676035 Z_310_2_1 * Z_409_1_1
   + 0.1573684054545327 Z_310_2_1 * Z_159_0_1 + 0.4 Z_310_2_1 * Z_102_0_1
   + 0.0165289256198347 Z_310_2_2 * Z_551_1_2 + 0.4 Z_310_2_2 * Z_551_0_2
   + 0.0568556187589977 Z_310_2_2 * Z_307_0_2
   + 0.0023271038676035 Z_310_2_2 * Z_409_1_2
   + 0.1573684054545327 Z_310_2_2 * Z_159_0_2 + 0.4 Z_310_2_2 * Z_102_0_2
   + 0.0165289256198347 Z_310_2_3 * Z_551_1_3 + 0.4 Z_310_2_3 * Z_551_0_3
   + 0.0568556187589977 Z_310_2_3 * Z_307_0_3
   + 0.0023271038676035 Z_310_2_3 * Z_409_1_3
   + 0.1573684054545327 Z_310_2_3 * Z_159_0_3 + 0.4 Z_310_2_3 * Z_102_0_3
   + 0.0165289256198347 Z_310_2_4 * Z_551_1_4 + 0.4 Z_310_2_4 * Z_551_0_4
   + 0.0568556187589977 Z_310_2_4 * Z_307_0_4
   + 0.0023271038676035 Z_310_2_4 * Z_409_1_4
   + 0.1573684054545327 Z_310_2_4 * Z_159_0_4 + 0.4 Z_310_2_4 * Z_102_0_4
   + 0.0165289256198347 Z_310_6_0 * Z_551_1_0 + 0.4 Z_310_6_0 * Z_551_0_0
   + 0.0568556187589977 Z_310_6_0 * Z_307_0_0
   + 0.0023271038676035 Z_310_6_0 * Z_409_1_0
   + 0.1573684054545327 Z_310_6_0 * Z_159_0_0 + 0.4 Z_310_6_0 * Z_102_0_0
   + 0.0165289256198347 Z_310_6_1 * Z_551_1_1 + 0.4 Z_310_6_1 * Z_551_0_1
   + 0.0568556187589977 Z_310_6_1 * Z_307_0_1
   + 0.0023271038676035 Z_310_6_1 * Z_409_1_1
   + 0.1573684054545327 Z_310_6_1 * Z_159_0_1 + 0.4 Z_310_6_1 * Z_102_0_1
   + 0.0165289256198347 Z_310_6_2 * Z_551_1_2 + 0.4 Z_310_6_2 * Z_551_0_2
   + 0.0568556187589977 Z_310_6_2 * Z_307_0_2
   + 0.0023271038676035 Z_310_6_2 * Z_409_1_2
   + 0.1573684054545327 Z_310_6_2 * Z_159_0_2 + 0.4 Z_310_6_2 * Z_102_0_2
   + 0.0165289256198347 Z_310_6_3 * Z_551_1_3 + 0.4 Z_310_6_3 * Z_551_0_3
   + 0.0568556187589977 Z_310_6_3 * Z_307_0_3
   + 0.0023271038676035 Z_310_6_3 * Z_409_1_3
   + 0.1573684054545327 Z_310_6_3 * Z_159_0_3 + 0.4 Z_310_6_3 * Z_102_0_3
   + 0.0165289256198347 Z_310_6_4 * Z_551_1_4 + 0.4 Z_310_6_4 * Z_551_0_4
   + 0.0568556187589977 Z_310_6_4 * Z_307_0_4
   + 0.0023271038676035 Z_310_6_4 * Z_409_1_4
   + 0.1573684054545327 Z_310_6_4 * Z_159_0_4 + 0.4 Z_310_6_4 * Z_102_0_4
   + 0.025 Z_310_0_0 * Z_307_0_0 + 0.000510204 Z_310_0_0 * Z_159_0_0
   + 0.025 Z_310_0_1 * Z_307_0_1 + 0.000510204 Z_310_0_1 * Z_159_0_1
   + 0.025 Z_310_0_2 * Z_307_0_2 + 0.000510204 Z_310_0_2 * Z_159_0_2
   + 0.025 Z_310_0_3 * Z_307_0_3 + 0.000510204 Z_310_0_3 * Z_159_0_3
   + 0.025 Z_310_0_4 * Z_307_0_4 + 0.000510204 Z_310_0_4 * Z_159_0_4
   + 0.025 Z_551_1_0 * Z_307_0_0 + 0.0698808447429605 Z_551_1_0 * Z_159_0_0
   + 0.0165289256198347 Z_551_1_0 * Z_102_0_0 + 0.225 Z_551_1_0 * Z_102_1_0
   + 0.025 Z_551_1_1 * Z_307_0_1 + 0.0698808447429605 Z_551_1_1 * Z_159_0_1
   + 0.0165289256198347 Z_551_1_1 * Z_102_0_1 + 0.225 Z_551_1_1 * Z_102_1_1
   + 0.025 Z_551_1_2 * Z_307_0_2 + 0.0698808447429605 Z_551_1_2 * Z_159_0_2
   + 0.0165289256198347 Z_551_1_2 * Z_102_0_2 + 0.225 Z_551_1_2 * Z_102_1_2
   + 0.025 Z_551_1_3 * Z_307_0_3 + 0.0698808447429605 Z_551_1_3 * Z_159_0_3
   + 0.0165289256198347 Z_551_1_3 * Z_102_0_3 + 0.225 Z_551_1_3 * Z_102_1_3
   + 0.025 Z_551_1_4 * Z_307_0_4 + 0.0698808447429605 Z_551_1_4 * Z_159_0_4
   + 0.0165289256198347 Z_551_1_4 * Z_102_0_4 + 0.225 Z_551_1_4 * Z_102_1_4
   + 0.0129624647459987 Z_551_0_0 * Z_307_0_0 + 0.4 Z_551_0_0 * Z_159_0_0
   + 0.4 Z_551_0_0 * Z_102_0_0 + 0.0129624647459987 Z_551_0_1 * Z_307_0_1
   + 0.4 Z_551_0_1 * Z_159_0_1 + 0.4 Z_551_0_1 * Z_102_0_1
   + 0.0129624647459987 Z_551_0_2 * Z_307_0_2 + 0.4 Z_551_0_2 * Z_159_0_2
   + 0.4 Z_551_0_2 * Z_102_0_2 + 0.0129624647459987 Z_551_0_3 * Z_307_0_3
   + 0.4 Z_551_0_3 * Z_159_0_3 + 0.4 Z_551_0_3 * Z_102_0_3
   + 0.0129624647459987 Z_551_0_4 * Z_307_0_4 + 0.4 Z_551_0_4 * Z_159_0_4
   + 0.4 Z_551_0_4 * Z_102_0_4 + 0.0568556187589977 Z_307_0_0 * Z_159_0_0
   + 0.1599986269515629 Z_307_0_0 * Z_102_0_0
   + 0.0568556187589977 Z_307_0_1 * Z_159_0_1
   + 0.1599986269515629 Z_307_0_1 * Z_102_0_1
   + 0.0568556187589977 Z_307_0_2 * Z_159_0_2
   + 0.1599986269515629 Z_307_0_2 * Z_102_0_2
   + 0.0568556187589977 Z_307_0_3 * Z_159_0_3
   + 0.1599986269515629 Z_307_0_3 * Z_102_0_3
   + 0.0568556187589977 Z_307_0_4 * Z_159_0_4
   + 0.1599986269515629 Z_307_0_4 * Z_102_0_4 + 0.4 Z_159_0_0 * Z_102_0_0
   + 0.4 Z_159_0_1 * Z_102_0_1 + 0.4 Z_159_0_2 * Z_102_0_2
   + 0.4 Z_159_0_3 * Z_102_0_3 + 0.4 Z_159_0_4 * Z_102_0_4 ] / 2 
Subject To
 constraint1_20: Z_2_0_0 + Z_2_0_1 + Z_2_0_2 + Z_2_0_3 + Z_2_0_4 <= 1
 constraint1_5891: Z_589_1_0 + Z_589_1_1 + Z_589_1_2 + Z_589_1_3
   + Z_589_1_4 <= 1
 constraint1_3104: Z_310_4_0 + Z_310_4_1 + Z_310_4_2 + Z_310_4_3
   + Z_310_4_4 <= 1
 constraint1_3101: Z_310_1_0 + Z_310_1_1 + Z_310_1_2 + Z_310_1_3
   + Z_310_1_4 <= 1
 constraint1_3105: Z_310_5_0 + Z_310_5_1 + Z_310_5_2 + Z_310_5_3
   + Z_310_5_4 <= 1
 constraint1_3102: Z_310_2_0 + Z_310_2_1 + Z_310_2_2 + Z_310_2_3
   + Z_310_2_4 <= 1
 constraint1_3106: Z_310_6_0 + Z_310_6_1 + Z_310_6_2 + Z_310_6_3
   + Z_310_6_4 <= 1
 constraint1_3100: Z_310_0_0 + Z_310_0_1 + Z_310_0_2 + Z_310_0_3
   + Z_310_0_4 <= 1
 constraint1_3103: Z_310_3_0 + Z_310_3_1 + Z_310_3_2 + Z_310_3_3
   + Z_310_3_4 <= 1
 constraint1_5511: Z_551_1_0 + Z_551_1_1 + Z_551_1_2 + Z_551_1_3
   + Z_551_1_4 <= 1
 constraint1_5510: Z_551_0_0 + Z_551_0_1 + Z_551_0_2 + Z_551_0_3
   + Z_551_0_4 <= 1
 constraint1_3070: Z_307_0_0 + Z_307_0_1 + Z_307_0_2 + Z_307_0_3
   + Z_307_0_4 <= 1
 constraint1_4091: Z_409_1_0 + Z_409_1_1 + Z_409_1_2 + Z_409_1_3
   + Z_409_1_4 <= 1
 constraint1_1590: Z_159_0_0 + Z_159_0_1 + Z_159_0_2 + Z_159_0_3
   + Z_159_0_4 <= 1
 constraint1_1020: Z_102_0_0 + Z_102_0_1 + Z_102_0_2 + Z_102_0_3
   + Z_102_0_4 <= 1
 constraint1_1021: Z_102_1_0 + Z_102_1_1 + Z_102_1_2 + Z_102_1_3
   + Z_102_1_4 <= 1
 constraint2_3930: <= 1
 constraint2_3931: <= 1
 constraint2_3932: <= 1
 constraint2_3933: <= 1
 constraint2_20: Z_2_0_0 <= 1
 constraint2_21: Z_2_0_1 <= 1
 constraint2_22: Z_2_0_2 <= 1
 constraint2_23: Z_2_0_3 <= 1
 constraint2_5890: Z_589_1_0 <= 1
 constraint2_5891: Z_589_1_1 <= 1
 constraint2_5892: Z_589_1_2 <= 1
 constraint2_5893: Z_589_1_3 <= 1
 constraint2_3100: Z_310_4_0 + Z_310_1_0 + Z_310_5_0 + Z_310_2_0
   + Z_310_6_0 + Z_310_0_0 + Z_310_3_0 <= 1
 constraint2_3101: Z_310_4_1 + Z_310_1_1 + Z_310_5_1 + Z_310_2_1
   + Z_310_6_1 + Z_310_0_1 + Z_310_3_1 <= 1
 constraint2_3102: Z_310_4_2 + Z_310_1_2 + Z_310_5_2 + Z_310_2_2
   + Z_310_6_2 + Z_310_0_2 + Z_310_3_2 <= 1
 constraint2_3103: Z_310_4_3 + Z_310_1_3 + Z_310_5_3 + Z_310_2_3
   + Z_310_6_3 + Z_310_0_3 + Z_310_3_3 <= 1
 constraint2_5510: Z_551_1_0 + Z_551_0_0 <= 1
 constraint2_5511: Z_551_1_1 + Z_551_0_1 <= 1
 constraint2_5512: Z_551_1_2 + Z_551_0_2 <= 1
 constraint2_5513: Z_551_1_3 + Z_551_0_3 <= 1
 constraint2_3070: Z_307_0_0 <= 1
 constraint2_3071: Z_307_0_1 <= 1
 constraint2_3072: Z_307_0_2 <= 1
 constraint2_3073: Z_307_0_3 <= 1
 constraint2_550: <= 1
 constraint2_551: <= 1
 constraint2_552: <= 1
 constraint2_553: <= 1
 constraint2_4090: Z_409_1_0 <= 1
 constraint2_4091: Z_409_1_1 <= 1
 constraint2_4092: Z_409_1_2 <= 1
 constraint2_4093: Z_409_1_3 <= 1
 constraint2_1590: Z_159_0_0 <= 1
 constraint2_1591: Z_159_0_1 <= 1
 constraint2_1592: Z_159_0_2 <= 1
 constraint2_1593: Z_159_0_3 <= 1
 constraint2_1020: Z_102_0_0 + Z_102_1_0 <= 1
 constraint2_1021: Z_102_0_1 + Z_102_1_1 <= 1
 constraint2_1022: Z_102_0_2 + Z_102_1_2 <= 1
 constraint2_1023: Z_102_0_3 + Z_102_1_3 <= 1
Bounds
Binaries
 Z_2_0_0 Z_2_0_1 Z_2_0_2 Z_2_0_3 Z_2_0_4 Z_589_1_0 Z_589_1_1 Z_589_1_2
 Z_589_1_3 Z_589_1_4 Z_310_4_0 Z_310_4_1 Z_310_4_2 Z_310_4_3 Z_310_4_4
 Z_310_1_0 Z_310_1_1 Z_310_1_2 Z_310_1_3 Z_310_1_4 Z_310_5_0 Z_310_5_1
 Z_310_5_2 Z_310_5_3 Z_310_5_4 Z_310_2_0 Z_310_2_1 Z_310_2_2 Z_310_2_3
 Z_310_2_4 Z_310_6_0 Z_310_6_1 Z_310_6_2 Z_310_6_3 Z_310_6_4 Z_310_0_0
 Z_310_0_1 Z_310_0_2 Z_310_0_3 Z_310_0_4 Z_310_3_0 Z_310_3_1 Z_310_3_2
 Z_310_3_3 Z_310_3_4 Z_551_1_0 Z_551_1_1 Z_551_1_2 Z_551_1_3 Z_551_1_4
 Z_551_0_0 Z_551_0_1 Z_551_0_2 Z_551_0_3 Z_551_0_4 Z_307_0_0 Z_307_0_1
 Z_307_0_2 Z_307_0_3 Z_307_0_4 Z_409_1_0 Z_409_1_1 Z_409_1_2 Z_409_1_3
 Z_409_1_4 Z_159_0_0 Z_159_0_1 Z_159_0_2 Z_159_0_3 Z_159_0_4 Z_102_0_0
 Z_102_0_1 Z_102_0_2 Z_102_0_3 Z_102_0_4 Z_102_1_0 Z_102_1_1 Z_102_1_2
 Z_102_1_3 Z_102_1_4
End
